\ This file was automatically generated by Zimpl
\ set E_idx    := {0,1,2};
\ set E[E_idx] := <0> {0}, <1> {1}, <2> {2};
\ set P        := union <e_idx> in E_idx: E[e_idx];
\ set PP       := P*P;
\ param dist[PP]     := read "/tmp/92hxr1BqFIu0CDcOG7ZCh5I8YDCY8ADH4AoQe5bCx9QHUqtz0qvC02zN4HGIwDXI/dists.dat" as "<1n, 2n> 3n"
\  default 100;
\ param N := max <i> in E_idx : i + 1;
\ set EE_idx := { <i, j> in E_idx*E_idx with i != j };
\ var x [EE_idx] binary;
\ var u [EE_idx];
\ var y [P] binary;
\ var a [PP] binary;
\ var b [PP] binary;
\ minimize cost: sum <p1, p2> in PP: a[p1, p2] * dist[p1, p2];
\ subto aux: forall <i, j> in EE_idx do             forall <p1> in E[i] do forall <p2> in  E[j] do                 a[p1, p2] ==
\  x[i,j] * b[p1, p2] and                 b[p1, p2] == y[p1] * y[p2];
\ subto from: forall <i> in E_idx do    (sum <i, j> in EE_idx: x[i, j]) == 1;
\ subto toto: forall <j> in E_idx do    (sum <i, j> in EE_idx: x[i, j]) == 1;
\ subto event_happens: forall <i> in E_idx do     (sum <p> in E[i]: y[p]) == 1;
\Problem name: /tmp/92hxr1BqFIu0CDcOG7ZCh5I8YDCY8ADH4AoQe5bCx9QHUqtz0qvC02zN4HGIwDXI/main.zimpl
Minimize
 cost:  +100 a#0#1 +100 a#1#0 +100 a#1#1 +100 a#2#0 +100 a#2#1 +100 a#2#2
 
Subject to
 aux_1:
  + a#0#1
  + [ - x#0#1 * b#0#1 ]
 = 0
 aux_2:
  + b#0#1
  + [ - y#0 * y#1 ]
 = 0
 aux_3:
  + a#0#2
  + [ - x#0#2 * b#0#2 ]
 = 0
 aux_4:
  + b#0#2
  + [ - y#0 * y#2 ]
 = 0
 aux_5:
  + a#1#2
  + [ - x#1#2 * b#1#2 ]
 = 0
 aux_6:
  + b#1#2
  + [ - y#1 * y#2 ]
 = 0
 aux_7:
  + a#1#0
  + [ - x#1#0 * b#1#0 ]
 = 0
 aux_8:
  + b#1#0
  + [ - y#1 * y#0 ]
 = 0
 aux_9:
  + a#2#1
  + [ - x#2#1 * b#2#1 ]
 = 0
 aux_10:
  + b#2#1
  + [ - y#2 * y#1 ]
 = 0
 aux_11:
  + a#2#0
  + [ - x#2#0 * b#2#0 ]
 = 0
 aux_12:
  + b#2#0
  + [ - y#2 * y#0 ]
 = 0
 from_1:
  + x#0#2 + x#0#1 = 1
 from_2:
  + x#1#0 + x#1#2 = 1
 from_3:
  + x#2#0 + x#2#1 = 1
 toto_1:
  + x#2#0 + x#1#0 = 1
 toto_2:
  + x#2#1 + x#0#1 = 1
 toto_3:
  + x#1#2 + x#0#2 = 1
 event_happens_1:
  + y#0 = 1
 event_happens_2:
  + y#1 = 1
 event_happens_3:
  + y#2 = 1
Bounds
 0 <= x#0#1 <= 1
 0 <= x#0#2 <= 1
 0 <= x#1#2 <= 1
 0 <= x#1#0 <= 1
 0 <= x#2#1 <= 1
 0 <= x#2#0 <= 1
 0 <= y#0 <= 1
 0 <= y#1 <= 1
 0 <= y#2 <= 1
 0 <= a#0#1 <= 1
 0 <= a#0#2 <= 1
 0 <= a#1#0 <= 1
 0 <= a#1#1 <= 1
 0 <= a#1#2 <= 1
 0 <= a#2#0 <= 1
 0 <= a#2#1 <= 1
 0 <= a#2#2 <= 1
 0 <= b#0#1 <= 1
 0 <= b#0#2 <= 1
 0 <= b#1#0 <= 1
 0 <= b#1#2 <= 1
 0 <= b#2#0 <= 1
 0 <= b#2#1 <= 1
General
 x#0#1
 x#0#2
 x#1#2
 x#1#0
 x#2#1
 x#2#0
 y#0
 y#1
 y#2
 a#0#1
 a#0#2
 a#1#0
 a#1#1
 a#1#2
 a#2#0
 a#2#1
 a#2#2
 b#0#1
 b#0#2
 b#1#0
 b#1#2
 b#2#0
 b#2#1
End
